data;
param nombreJob := 7;
param nombreRessource := 3;
param duree := 1 3 2 8 3 3 4 1 5 4 6 5 7 2;
param capaciteRessource := 1 6 2 15 3 10;
param besoinRessource : 1 2 3 :=
                    1   2 4 3
                    2   3 6 5
                    3   2 5 9
                    4   2 2 2
                    5   2 7 3
                    6   3 5 8
                    7   1 6 4;
end;

